%
% Generated Sudoku 16x16
% Density approximation: 0.60
%
x = array2d(1..n, 1..n, [
   6,  13,   5,   _,  12,  15,   _,   _,   9,   _,   7,  10,   4,  11,   _,   _,
  12,   9,   _,   _,  10,  11,   _,  13,   _,   1,   _,   _,   _,   3,   _,   5,
  10,   _,  15,  16,   3,   9,   _,   _,   _,  11,   _,  13,   7,   8,   1,  12,
   1,   3,   _,  11,   _,   4,   2,   _,   5,   _,   _,  15,  13,  16,   _,   9,
   2,   _,   _,  15,   _,   7,  12,  16,   _,   _,   _,   _,   6,   9,   _,   _,
   4,   _,   _,   7,  11,   _,  15,   6,  16,   2,   3,   9,   _,   _,   8,  10,
   5,  16,   9,   _,   _,   3,   _,   _,   _,  10,   _,   6,   _,   _,  11,   7,
   8,   _,   3,   6,   _,  10,   9,   4,   7,   _,   _,   _,   _,   _,   _,   2,
  14,   7,   6,   5,   _,   _,   _,   _,   8,  12,  16,   _,   3,  10,  15,   _,
  11,   _,   8,  10,   _,   6,   3,  12,   _,   _,   _,   _,   2,   7,   5,   4,
   _,   1,   _,  13,   7,   _,  10,   _,   _,   4,   _,   _,   9,   6,  14,   _,
   _,   4,   _,   9,  15,   1,   _,   8,  10,   7,   _,   5,   _,  12,  13,   _,
   7,   5,  10,   3,   1,  12,  11,  15,  14,   6,  13,   _,   8,   4,   9,   _,
   _,   _,  16,   _,   9,   _,   7,  10,   _,   _,   _,   _,   _,   2,   3,   _,
   _,   8,   4,   2,   _,  16,   6,   5,   3,   _,  11,   _,   _,   _,  12,  13,
   9,   6,  11,   1,   2,  13,   4,   3,  12,  16,  10,   8,   _,   _,   7,   _
]);

n = 16;
